Results/Experiment 1 Results/New Benchmark/RES_40/output_p1_0.25_p2_0.00_n_40_15.txt
solutions: 0 nodes: 0  modelTime: 133  solveTime: 9  totalTime: 147  modelSize: 7857  readTime: 5 matchingSize: 0
