Results/Experiment 2 Results/New Benchmark/output_p1_0.25_p2_0.00_n_40_15.lp
clingo version 5.4.0
Reading from tempSRTISolver.lp ...
Solving...
Answer: 1
matched(1,4) matched(8,5) matched(3,7) matched(5,8) matched(12,10) matched(15,14) matched(14,15) matched(16,18) matched(13,19) matched(17,20) matched(19,13) matched(24,22) matched(23,25) matched(21,28) matched(28,21) matched(32,30) matched(29,31) matched(30,32) matched(31,29) matched(38,34) matched(39,35) matched(37,36) matched(34,38) matched(35,39) matched(7,3) matched(2,6) matched(9,11) matched(20,17) matched(25,23) matched(22,24) matched(27,26) matched(26,27) matched(36,37) matched(33,40) matched(6,2) matched(11,9) matched(40,33) matched(4,1) matched(10,12) matched(18,16)
Optimization: 400
Answer: 2
matched(1,4) matched(8,5) matched(6,7) matched(5,8) matched(12,10) matched(15,14) matched(14,15) matched(16,18) matched(13,19) matched(17,20) matched(19,13) matched(24,22) matched(23,25) matched(21,28) matched(28,21) matched(32,30) matched(29,31) matched(30,32) matched(31,29) matched(38,34) matched(39,35) matched(33,36) matched(34,38) matched(35,39) matched(2,3) matched(7,6) matched(9,11) matched(20,17) matched(25,23) matched(22,24) matched(27,26) matched(26,27) matched(40,37) matched(37,40) matched(3,2) matched(11,9) matched(36,33) matched(4,1) matched(10,12) matched(18,16)
Optimization: 399
Answer: 3
matched(1,4) matched(8,5) matched(6,7) matched(5,8) matched(12,10) matched(15,14) matched(14,15) matched(16,18) matched(13,19) matched(17,20) matched(19,13) matched(24,22) matched(23,25) matched(21,28) matched(28,21) matched(32,30) matched(29,31) matched(30,32) matched(31,29) matched(38,34) matched(39,35) matched(37,36) matched(34,38) matched(35,39) matched(2,3) matched(7,6) matched(9,11) matched(20,17) matched(25,23) matched(22,24) matched(27,26) matched(26,27) matched(36,37) matched(33,40) matched(3,2) matched(11,9) matched(40,33) matched(4,1) matched(10,12) matched(18,16)
Optimization: 398
Answer: 4
matched(6,4) matched(8,5) matched(1,7) matched(5,8) matched(12,10) matched(15,14) matched(14,15) matched(16,18) matched(13,19) matched(17,20) matched(19,13) matched(26,22) matched(24,25) matched(21,28) matched(28,21) matched(32,30) matched(29,31) matched(30,32) matched(31,29) matched(36,34) matched(37,35) matched(34,36) matched(39,38) matched(38,39) matched(2,3) matched(4,6) matched(9,11) matched(20,17) matched(27,23) matched(25,24) matched(22,26) matched(23,27) matched(35,37) matched(33,40) matched(3,2) matched(11,9) matched(40,33) matched(7,1) matched(10,12) matched(18,16)
Optimization: 397
Answer: 5
matched(1,4) matched(8,5) matched(6,7) matched(5,8) matched(12,10) matched(15,14) matched(14,15) matched(16,18) matched(13,19) matched(17,20) matched(19,13) matched(26,22) matched(24,25) matched(21,28) matched(28,21) matched(32,30) matched(29,31) matched(30,32) matched(31,29) matched(36,34) matched(37,35) matched(34,36) matched(39,38) matched(38,39) matched(2,3) matched(7,6) matched(9,11) matched(20,17) matched(27,23) matched(25,24) matched(22,26) matched(23,27) matched(35,37) matched(33,40) matched(3,2) matched(11,9) matched(40,33) matched(4,1) matched(10,12) matched(18,16)
Optimization: 396
Answer: 6
matched(6,4) matched(8,5) matched(1,7) matched(5,8) matched(12,10) matched(15,14) matched(14,15) matched(16,18) matched(13,19) matched(17,20) matched(19,13) matched(24,22) matched(23,25) matched(21,28) matched(28,21) matched(32,30) matched(29,31) matched(30,32) matched(31,29) matched(36,34) matched(37,35) matched(34,36) matched(39,38) matched(38,39) matched(2,3) matched(4,6) matched(9,11) matched(20,17) matched(25,23) matched(22,24) matched(27,26) matched(26,27) matched(35,37) matched(33,40) matched(3,2) matched(11,9) matched(40,33) matched(7,1) matched(10,12) matched(18,16)
Optimization: 389
Answer: 7
matched(1,4) matched(8,5) matched(6,7) matched(5,8) matched(12,10) matched(15,14) matched(14,15) matched(16,18) matched(13,19) matched(17,20) matched(19,13) matched(24,22) matched(23,25) matched(21,28) matched(28,21) matched(32,30) matched(29,31) matched(30,32) matched(31,29) matched(36,34) matched(37,35) matched(34,36) matched(39,38) matched(38,39) matched(2,3) matched(7,6) matched(9,11) matched(20,17) matched(25,23) matched(22,24) matched(27,26) matched(26,27) matched(35,37) matched(33,40) matched(3,2) matched(11,9) matched(40,33) matched(4,1) matched(10,12) matched(18,16)
Optimization: 388
Answer: 8
matched(6,4) matched(8,5) matched(1,7) matched(5,8) matched(12,10) matched(18,14) matched(19,15) matched(14,18) matched(15,19) matched(13,20) matched(20,13) matched(24,22) matched(23,25) matched(21,28) matched(28,21) matched(32,30) matched(29,31) matched(30,32) matched(31,29) matched(36,34) matched(37,35) matched(34,36) matched(39,38) matched(38,39) matched(2,3) matched(4,6) matched(9,11) matched(16,17) matched(25,23) matched(22,24) matched(27,26) matched(26,27) matched(35,37) matched(33,40) matched(3,2) matched(11,9) matched(40,33) matched(7,1) matched(10,12) matched(17,16)
Optimization: 386
Answer: 9
matched(1,4) matched(8,5) matched(6,7) matched(5,8) matched(12,10) matched(18,14) matched(19,15) matched(14,18) matched(15,19) matched(13,20) matched(20,13) matched(24,22) matched(23,25) matched(21,28) matched(28,21) matched(32,30) matched(29,31) matched(30,32) matched(31,29) matched(36,34) matched(37,35) matched(34,36) matched(39,38) matched(38,39) matched(2,3) matched(7,6) matched(9,11) matched(16,17) matched(25,23) matched(22,24) matched(27,26) matched(26,27) matched(35,37) matched(33,40) matched(3,2) matched(11,9) matched(40,33) matched(4,1) matched(10,12) matched(17,16)
Optimization: 385
OPTIMUM FOUND

Models       : 9
  Optimum    : yes
Optimization : 385
Calls        : 1
Time         : 0.369s (Solving: 0.13s 1st Model: 0.00s Unsat: 0.05s)
CPU Time     : 0.369s
